c Created with the Wolfram Language : www.wolfram.com
c 
p edge 80 302
e 1 4
e 4 7
e 1 8
e 6 8
e 3 10
e 4 10
e 2 11
e 3 11
e 7 11
e 2 13
e 5 13
e 11 13
e 2 15
e 3 15
e 5 15
e 4 16
e 5 16
e 8 18
e 14 18
e 1 19
e 3 19
e 17 19
e 5 21
e 8 21
e 18 21
e 5 22
e 11 22
e 13 22
e 21 22
e 2 23
e 9 23
e 14 24
e 19 24
e 20 24
e 7 25
e 19 25
e 11 26
e 17 26
e 19 26
e 3 27
e 5 27
e 15 27
e 17 27
e 19 27
e 23 27
e 25 29
e 28 29
e 6 30
e 23 30
e 19 31
e 20 31
e 26 31
e 1 33
e 2 33
e 4 33
e 22 33
e 6 34
e 18 34
e 10 35
e 15 35
e 16 35
e 11 36
e 19 36
e 23 36
e 27 36
e 29 36
e 32 36
e 35 36
e 5 37
e 7 37
e 8 37
e 9 37
e 18 37
e 27 37
e 23 38
e 36 38
e 14 39
e 33 39
e 36 39
e 13 40
e 15 40
e 24 40
e 19 41
e 28 41
e 34 41
e 38 41
e 9 42
e 11 42
e 12 42
e 23 42
e 33 42
e 35 42
e 36 42
e 19 43
e 33 43
e 36 43
e 1 44
e 21 44
e 27 44
e 36 44
e 6 45
e 8 45
e 14 45
e 16 45
e 32 45
e 36 45
e 39 45
e 4 46
e 9 46
e 26 46
e 11 47
e 29 47
e 33 47
e 37 47
e 46 47
e 18 48
e 25 48
e 28 48
e 22 49
e 37 49
e 44 49
e 2 50
e 6 50
e 10 50
e 26 50
e 28 50
e 29 50
e 36 50
e 38 50
e 46 50
e 47 50
e 13 51
e 44 51
e 46 51
e 26 52
e 31 52
e 40 52
e 1 53
e 3 53
e 38 53
e 43 53
e 49 53
e 9 54
e 16 54
e 17 54
e 29 54
e 48 54
e 6 55
e 12 55
e 17 55
e 21 55
e 23 55
e 30 55
e 39 55
e 40 55
e 41 55
e 16 56
e 17 56
e 20 56
e 23 56
e 32 56
e 1 57
e 6 57
e 30 57
e 38 57
e 44 57
e 50 57
e 1 58
e 2 58
e 8 58
e 25 58
e 37 58
e 50 58
e 13 59
e 24 59
e 27 60
e 30 60
e 34 60
e 26 61
e 29 61
e 38 61
e 11 62
e 26 62
e 28 62
e 31 62
e 37 62
e 38 62
e 43 62
e 51 62
e 53 62
e 9 63
e 12 63
e 59 63
e 6 64
e 11 64
e 21 64
e 31 64
e 46 64
e 47 64
e 48 64
e 56 64
e 6 65
e 27 65
e 45 65
e 59 65
e 61 65
e 8 66
e 13 66
e 14 66
e 43 66
e 50 66
e 60 66
e 3 67
e 12 67
e 16 67
e 17 67
e 21 67
e 38 67
e 46 67
e 54 67
e 58 67
e 2 68
e 4 68
e 11 68
e 23 68
e 35 68
e 39 68
e 66 68
e 6 69
e 38 69
e 50 69
e 55 69
e 59 69
e 5 70
e 6 70
e 12 70
e 32 70
e 36 70
e 55 70
e 56 70
e 60 70
e 67 70
e 69 70
e 3 71
e 5 71
e 13 71
e 21 71
e 22 71
e 39 71
e 47 71
e 64 71
e 3 72
e 23 72
e 42 72
e 47 72
e 3 73
e 4 73
e 30 73
e 46 73
e 70 73
e 19 74
e 24 74
e 35 74
e 38 74
e 45 74
e 12 75
e 23 75
e 45 75
e 47 75
e 52 75
e 57 75
e 7 76
e 28 76
e 74 76
e 6 77
e 12 77
e 16 77
e 18 77
e 27 77
e 42 77
e 47 77
e 53 77
e 12 78
e 21 78
e 31 78
e 44 78
e 48 78
e 20 79
e 21 79
e 49 79
e 68 79
e 76 79
e 78 79
e 9 80
e 18 80
e 25 80
e 33 80
e 38 80
e 50 80
e 56 80
e 59 80
e 64 80
